
        $ From http://www.csplib.org/Problems/prob009/data/helmut.pdf
        $ Problem number 14
        $ Sequence length : 23
        language ESSENCE' 1.0
        letting sizemaster be 145
        letting sizes be sequence(1,2,3,4,6,8,9,12,15,20,22,24,25,26,27,29,30,31,32,34,36,61,84)
        